/*********************************************
 * OPL 12.6.0.0 Data
 * Author: Adrian Rodriguez Bazaga, Pau Rodriguez Esmerats
 * Creation Date: 30/11/2017 at 21:43:52
 *********************************************/

nNurses=567;
maxConsec=2;
maxPresence=7;
maxHours=5;
minHours=1;
demand= [122 112 182 166 112 182 166 116 115 55 12 17 18 20 25 16 18 9 13 3 95 165 77 162  ];
